Node	x	y	qi
1	34	91	23
2	11	30	33
3	49	46	37
4	22	35	27
5	47	61	42
6	10	18	32
7	90	52	34
8	21	26	26
9	95	47	40
10	58	39	34
11	77	26	35
12	23	29	19
13	22	74	45
14	60	72	29
15	9	81	36
16	34	85	32
17	28	98	38
18	72	65	24
19	98	2	35
20	44	27	39
21	19	99	34
22	65	0	33
23	30	46	36
24	13	95	38
25	33	87	37
26	51	37	23
27	71	66	34
28	73	90	32
29	8	76	41
30	37	52	32
Competitor: 	24	12	14	20
